data;

set INIMIGOS := homens mulheres;
set VENENOS := alfa beta;

param eliminar :=
    homens        20
    mulheres      10;

param disponibilidade :=
    alfa      500
    beta      2000;

param proporcao :=
    alfa      3
    beta      1;

end;